RLW02
Position Depot: Center
Horizon for Depot: Large
Position of customers: Random
Distribution of the demand: Medium
Width of time windows: Wide
Distribution of the service: Small

VEHICLE 
NUMBER 	 CAPACITY 
 7 	 	 281 
 
CUSTOMER
CUST NO. 	 XCOORD.  	 YCOORD. 	 DEMAND 	 READY TIME 	 DUE DATE 	 SERVICE TIME 
 0 	 	 500 	 	 500 	 	 0 	 	 0 	 	 4129 	 	 0 
  1 	 	 577 	 	 410 	 	 2 	 	 1689 	 	 2137 	 	 50 
  2 	 	 181 	 	 541 	 	 8 	 	 1688 	 	 2010 	 	 70 
  3 	 	 506 	 	 703 	 	 4 	 	 3191 	 	 3563 	 	 85 
  4 	 	 625 	 	 928 	 	 5 	 	 1685 	 	 1909 	 	 54 
  5 	 	 781 	 	 523 	 	 6 	 	 1075 	 	 1536 	 	 99 
  6 	 	 811 	 	 904 	 	 5 	 	 2213 	 	 2695 	 	 73 
  7 	 	 169 	 	 718 	 	 8 	 	 564 	 	 827 	 	 88 
  8 	 	 983 	 	 526 	 	 3 	 	 1112 	 	 1440 	 	 77 
  9 	 	 222 	 	 964 	 	 1 	 	 3728 	 	 4129 	 	 95 
  10 	 	 652 	 	 356 	 	 3 	 	 99 	 	 567 	 	 55 
  11 	 	 827 	 	 261 	 	 5 	 	 549 	 	 820 	 	 99 
  12 	 	 631 	 	 862 	 	 93 	 	 457 	 	 884 	 	 65 
  13 	 	 994 	 	 871 	 	 7 	 	 3112 	 	 3396 	 	 70 
  14 	 	 448 	 	 129 	 	 8 	 	 1605 	 	 1866 	 	 77 
  15 	 	 615 	 	 546 	 	 2 	 	 2249 	 	 2591 	 	 65 
  16 	 	 387 	 	 767 	 	 4 	 	 3346 	 	 3842 	 	 51 
  17 	 	 31 	 	 642 	 	 65 	 	 1980 	 	 2285 	 	 61 
  18 	 	 291 	 	 151 	 	 5 	 	 2298 	 	 2797 	 	 98 
  19 	 	 256 	 	 852 	 	 3 	 	 2698 	 	 3149 	 	 76 
  20 	 	 876 	 	 124 	 	 10 	 	 2987 	 	 3291 	 	 68 
  21 	 	 830 	 	 110 	 	 51 	 	 721 	 	 1212 	 	 97 
  22 	 	 13 	 	 558 	 	 3 	 	 387 	 	 843 	 	 73 
  23 	 	 586 	 	 824 	 	 9 	 	 2688 	 	 3158 	 	 70 
  24 	 	 0 	 	 126 	 	 8 	 	 2690 	 	 3046 	 	 84 
  25 	 	 408 	 	 347 	 	 10 	 	 3872 	 	 4129 	 	 91 
  26 	 	 939 	 	 386 	 	 9 	 	 156 	 	 498 	 	 90 
  27 	 	 612 	 	 739 	 	 96 	 	 1411 	 	 1847 	 	 88 
  28 	 	 854 	 	 529 	 	 5 	 	 1180 	 	 1610 	 	 89 
  29 	 	 684 	 	 543 	 	 9 	 	 -172 	 	 227 	 	 87 
  30 	 	 436 	 	 993 	 	 10 	 	 328 	 	 780 	 	 97 
  31 	 	 253 	 	 655 	 	 68 	 	 -34 	 	 374 	 	 96 
  32 	 	 644 	 	 159 	 	 7 	 	 2067 	 	 2358 	 	 99 
  33 	 	 75 	 	 834 	 	 1 	 	 2694 	 	 3029 	 	 95 
  34 	 	 421 	 	 894 	 	 5 	 	 1027 	 	 1463 	 	 66 
  35 	 	 496 	 	 173 	 	 1 	 	 1987 	 	 2448 	 	 56 
  36 	 	 762 	 	 604 	 	 6 	 	 335 	 	 761 	 	 51 
  37 	 	 168 	 	 519 	 	 3 	 	 559 	 	 964 	 	 90 
  38 	 	 705 	 	 282 	 	 4 	 	 1540 	 	 1861 	 	 71 
  39 	 	 275 	 	 70 	 	 9 	 	 2796 	 	 3235 	 	 82 
  40 	 	 571 	 	 754 	 	 5 	 	 2018 	 	 2400 	 	 89 
  41 	 	 757 	 	 237 	 	 7 	 	 1187 	 	 1634 	 	 100 
  42 	 	 265 	 	 887 	 	 4 	 	 1956 	 	 2281 	 	 92 
  43 	 	 31 	 	 872 	 	 89 	 	 3117 	 	 3479 	 	 77 
  44 	 	 955 	 	 779 	 	 5 	 	 1436 	 	 1673 	 	 90 
  45 	 	 749 	 	 169 	 	 87 	 	 3384 	 	 3881 	 	 96 
  46 	 	 151 	 	 620 	 	 79 	 	 1196 	 	 1466 	 	 99 
  47 	 	 141 	 	 915 	 	 6 	 	 2334 	 	 2739 	 	 65 
  48 	 	 118 	 	 735 	 	 5 	 	 431 	 	 685 	 	 64 
  49 	 	 406 	 	 329 	 	 2 	 	 1417 	 	 1640 	 	 53 
  50 	 	 828 	 	 611 	 	 4 	 	 57 	 	 510 	 	 95 
  51 	 	 541 	 	 834 	 	 10 	 	 3435 	 	 3810 	 	 92 
  52 	 	 857 	 	 281 	 	 3 	 	 623 	 	 936 	 	 75 
  53 	 	 238 	 	 506 	 	 3 	 	 1738 	 	 2058 	 	 68 
  54 	 	 473 	 	 560 	 	 4 	 	 3534 	 	 3866 	 	 71 
  55 	 	 508 	 	 607 	 	 4 	 	 533 	 	 756 	 	 50 
  56 	 	 816 	 	 5 	 	 70 	 	 2889 	 	 3386 	 	 68 
  57 	 	 940 	 	 200 	 	 3 	 	 378 	 	 585 	 	 74 
  58 	 	 148 	 	 897 	 	 1 	 	 2943 	 	 3273 	 	 58 
  59 	 	 81 	 	 473 	 	 5 	 	 243 	 	 461 	 	 84 
  60 	 	 62 	 	 537 	 	 52 	 	 2111 	 	 2371 	 	 77 
  61 	 	 93 	 	 194 	 	 3 	 	 2138 	 	 2436 	 	 92 
  62 	 	 458 	 	 399 	 	 5 	 	 1966 	 	 2290 	 	 65 
  63 	 	 61 	 	 602 	 	 87 	 	 1245 	 	 1624 	 	 77 
  64 	 	 619 	 	 714 	 	 9 	 	 308 	 	 688 	 	 85 
  65 	 	 422 	 	 551 	 	 9 	 	 3356 	 	 3591 	 	 95 
  66 	 	 273 	 	 761 	 	 2 	 	 1915 	 	 2205 	 	 56 
  67 	 	 154 	 	 60 	 	 77 	 	 388 	 	 615 	 	 90 
  68 	 	 93 	 	 934 	 	 80 	 	 3740 	 	 4129 	 	 56 
  69 	 	 320 	 	 41 	 	 1 	 	 3498 	 	 3763 	 	 75 
  70 	 	 781 	 	 724 	 	 78 	 	 -33 	 	 435 	 	 67 
  71 	 	 92 	 	 256 	 	 55 	 	 2363 	 	 2580 	 	 74 
  72 	 	 59 	 	 750 	 	 3 	 	 1935 	 	 2329 	 	 57 
  73 	 	 876 	 	 694 	 	 7 	 	 1781 	 	 2238 	 	 85 
  74 	 	 210 	 	 338 	 	 82 	 	 2953 	 	 3452 	 	 80 
  75 	 	 107 	 	 132 	 	 8 	 	 243 	 	 592 	 	 97 
  76 	 	 160 	 	 204 	 	 9 	 	 2531 	 	 2780 	 	 76 
  77 	 	 353 	 	 129 	 	 1 	 	 2224 	 	 2697 	 	 70 
  78 	 	 427 	 	 305 	 	 5 	 	 2431 	 	 2897 	 	 82 
  79 	 	 8 	 	 538 	 	 6 	 	 2483 	 	 2850 	 	 86 
  80 	 	 70 	 	 462 	 	 80 	 	 3527 	 	 3913 	 	 97 
  81 	 	 993 	 	 389 	 	 55 	 	 325 	 	 593 	 	 53 
  82 	 	 536 	 	 503 	 	 5 	 	 1763 	 	 2256 	 	 97 
  83 	 	 346 	 	 370 	 	 91 	 	 2829 	 	 3235 	 	 69 
  84 	 	 475 	 	 612 	 	 84 	 	 1267 	 	 1481 	 	 59 
  85 	 	 256 	 	 703 	 	 3 	 	 776 	 	 1070 	 	 99 
  86 	 	 420 	 	 961 	 	 1 	 	 572 	 	 1051 	 	 93 
  87 	 	 272 	 	 731 	 	 5 	 	 301 	 	 793 	 	 83 
  88 	 	 656 	 	 80 	 	 100 	 	 1636 	 	 1924 	 	 82 
  89 	 	 882 	 	 442 	 	 6 	 	 3784 	 	 4129 	 	 64 
  90 	 	 912 	 	 205 	 	 4 	 	 3269 	 	 3700 	 	 93 
  91 	 	 375 	 	 557 	 	 62 	 	 3830 	 	 4067 	 	 66 
  92 	 	 417 	 	 206 	 	 9 	 	 2886 	 	 3349 	 	 81 
  93 	 	 78 	 	 413 	 	 9 	 	 3376 	 	 3596 	 	 72 
  94 	 	 871 	 	 469 	 	 5 	 	 -67 	 	 409 	 	 57 
  95 	 	 841 	 	 309 	 	 6 	 	 2079 	 	 2548 	 	 76 
  96 	 	 555 	 	 962 	 	 83 	 	 3095 	 	 3592 	 	 69 
  97 	 	 463 	 	 309 	 	 8 	 	 908 	 	 1389 	 	 99 
  98 	 	 1000 	 	 997 	 	 1 	 	 3229 	 	 3718 	 	 52 
  99 	 	 377 	 	 430 	 	 1 	 	 618 	 	 864 	 	 50 
  100 	 	 392 	 	 275 	 	 6 	 	 3757 	 	 4129 	 	 74 
 